c 
c G(k,n,p) graph
c graph gen seed     : 3092322
c number of vertices : 70
c max number of edges: 1225
c number of classes  : 2
c edge density       : 0.100000
c edge probability   : 0.200000
c data structure     : sparse
c
c           Graph Stats
c number of vertices  : 70
c nonisolated vertices: 70
c number of edges     : 227
c edge density        : 0.093996
c max degree          : 16
c avg degree          : 6.49
c min degree          : 2
p col 70 227
e 1 58
e 1 40
e 1 36
e 1 19
e 1 14
e 1 2
e 2 66
e 2 51
e 2 35
e 2 27
e 2 26
e 2 20
e 2 16
e 2 11
e 2 6
e 3 54
e 3 50
e 3 46
e 3 43
e 3 27
e 3 26
e 3 25
e 3 23
e 3 20
e 4 69
e 4 67
e 4 65
e 4 51
e 4 26
e 4 25
e 5 60
e 5 47
e 5 35
e 5 25
e 5 23
e 5 9
e 5 6
e 6 56
e 6 41
e 6 39
e 6 33
e 6 31
e 6 14
e 7 59
e 7 51
e 7 47
e 7 42
e 7 25
e 7 16
e 7 13
e 8 70
e 8 65
e 8 34
e 8 27
e 8 23
e 8 21
e 8 20
e 9 68
e 9 58
e 9 53
e 9 41
e 9 39
e 9 33
e 9 31
e 9 29
e 9 19
e 10 65
e 10 63
e 10 55
e 10 50
e 10 47
e 10 32
e 10 28
e 11 31
e 11 17
e 12 70
e 12 55
e 12 50
e 12 46
e 12 32
e 12 25
e 12 23
e 13 44
e 13 29
e 13 19
e 13 17
e 14 70
e 14 61
e 14 52
e 14 26
e 14 21
e 15 68
e 15 62
e 15 57
e 15 45
e 15 24
e 15 22
e 15 17
e 16 45
e 16 31
e 16 29
e 16 24
e 16 19
e 17 70
e 17 37
e 17 27
e 17 25
e 17 21
e 18 64
e 18 46
e 18 23
e 19 69
e 19 60
e 19 52
e 19 21
e 20 62
e 20 53
e 21 68
e 21 38
e 21 33
e 21 30
e 21 22
e 22 65
e 22 51
e 22 47
e 22 43
e 23 49
e 23 38
e 24 70
e 24 64
e 24 50
e 24 34
e 25 29
e 26 57
e 26 36
e 27 40
e 28 68
e 28 58
e 28 57
e 28 29
e 29 67
e 29 61
e 29 52
e 29 47
e 30 70
e 30 63
e 30 47
e 30 43
e 30 42
e 31 70
e 31 69
e 31 67
e 31 55
e 31 42
e 31 35
e 31 32
e 32 49
e 33 65
e 33 51
e 33 47
e 33 35
e 33 34
e 34 41
e 34 40
e 35 68
e 35 39
e 37 57
e 37 53
e 37 49
e 37 40
e 38 63
e 38 55
e 38 54
e 39 69
e 39 67
e 39 61
e 39 43
e 40 63
e 40 50
e 41 64
e 41 50
e 41 43
e 42 68
e 42 58
e 42 57
e 42 44
e 43 68
e 43 62
e 44 70
e 44 65
e 44 63
e 44 59
e 45 70
e 45 64
e 47 62
e 47 57
e 48 68
e 48 49
e 49 51
e 49 50
e 53 70
e 53 64
e 53 54
e 54 68
e 54 62
e 54 58
e 55 62
e 56 65
e 56 61
e 57 66
e 57 61
e 57 60
e 58 70
e 58 67
e 58 66
e 58 65
e 58 60
e 58 59
e 59 68
e 59 62
e 60 68
e 62 67
e 64 68
e 65 68
e 66 68
e 67 68
e 68 69
